NAME : pairopt.-191814.tour
COMMENT : Length = -191814
COMMENT : Found by LKH-3 [Keld Helsgaun] Tue May  2 13:45:05 2023
TYPE : TOUR
DIMENSION : 22
TOUR_SECTION
1
2
10
11
9
8
7
6
12
13
14
22
3
15
16
17
18
19
20
21
5
4
-1
EOF
